db/data/2502331683205021636923715532164012452.z3.out
-------------------
2500.175692842
